w = 40;
n = 20;
measures = [|3, 3,
|3, 4,
|3, 5,
|3, 6,
|3, 7,
|3, 8,
|3, 9,
|3, 10,
|3, 12,
|3, 16,
|3, 40,
|4, 4,
|4, 14,
|4, 22,
|5, 3,
|5, 4,
|5, 8,
|5, 12,
|5, 13,
|22, 40,
|];
initial_x = [0, 3, 6, 9, 12, 15, 18, 21, 24, 27, 30, 33, 0, 4, 8, 13, 18, 23, 28, 0];
initial_y = [0, 0, 0, 0, 0, 0, 0, 0, 0, 0, 0, 0, 40, 40, 40, 40, 40, 40, 40, 62];